(benchmark random_random7_smt
:extrafuns ((x0 BitVec[24]))
:extrafuns ((x1 BitVec[24]))
:extrafuns ((x2 BitVec[24]))
:extrafuns ((x3 BitVec[24]))
:extrafuns ((x4 BitVec[24]))
:extrafuns ((x5 BitVec[24]))
:extrafuns ((x6 BitVec[24]))
:extrafuns ((x7 BitVec[24]))
:extrafuns ((x8 BitVec[24]))
:extrafuns ((x9 BitVec[24]))
:extrafuns ((x10 BitVec[24]))
:extrafuns ((x11 BitVec[24]))
:extrafuns ((x12 BitVec[24]))
:extrafuns ((x13 BitVec[24]))
:extrafuns ((x14 BitVec[24]))
:extrafuns ((x15 BitVec[24]))
:extrafuns ((x16 BitVec[24]))
:extrafuns ((x17 BitVec[24]))
:extrafuns ((x18 BitVec[24]))
:extrafuns ((x19 BitVec[24]))


:formula (and (not (= (bvadd (bvmul bv13303475[24] x0) 
                        (bvadd (bvmul bv9506430[24] x3) 
                        (bvadd (bvmul bv13160974[24] x4) 
                        (bvadd (bvmul bv3513504[24] x6) 
                        (bvadd (bvmul bv12309943[24] x8) 
                        (bvadd (bvmul bv310023[24] x9) 
                        (bvadd (bvmul bv15511403[24] x11) 
                        (bvadd (bvmul bv9363779[24] x12) 
                        (bvadd (bvmul bv3305626[24] x13) 
                        (bvadd (bvmul bv149999[24] x14) 
                        (bvadd (bvmul bv434502[24] x16) 
                        (bvadd (bvmul bv12541550[24] x17) (bvmul bv9067811[24] x19)))))))))))))
	              bv8956908[24]))
         (and (not (= (bvadd (bvmul bv8435620[24] x0) 
                        (bvadd (bvmul bv15120444[24] x7) 
                        (bvadd (bvmul bv15430467[24] x9) 
                        (bvadd (bvmul bv9550922[24] x10) 
                        (bvadd (bvmul bv9343755[24] x11) 
                        (bvadd (bvmul bv12649381[24] x13) 
                        (bvadd (bvmul bv9539348[24] x14) 
                        (bvadd (bvmul bv12309976[24] x17) (bvmul bv4986733[24] x19)))))))))
	              bv11117245[24]))
         (and (not (= (bvadd (bvmul bv7595030[24] x4) 
                        (bvadd (bvmul bv611902[24] x5) 
                        (bvadd (bvmul bv4663776[24] x6) 
                        (bvadd (bvmul bv3016313[24] x7) 
                        (bvadd (bvmul bv14385598[24] x8) 
                        (bvadd (bvmul bv7988866[24] x9) 
                        (bvadd (bvmul bv6314666[24] x10) 
                        (bvadd (bvmul bv4385174[24] x11) 
                        (bvadd (bvmul bv3788950[24] x14) 
                        (bvadd (bvmul bv7121159[24] x15) (bvmul bv13620845[24] x16)))))))))))
	              bv7586943[24]))
         (and (not (= (bvadd (bvmul bv13984414[24] x1) 
                        (bvadd (bvmul bv1210648[24] x7) 
                        (bvadd (bvmul bv15596246[24] x9) 
                        (bvadd (bvmul bv7006934[24] x12) 
                        (bvadd (bvmul bv14977245[24] x13) 
                        (bvadd (bvmul bv275465[24] x14) 
                        (bvadd (bvmul bv12982719[24] x15) 
                        (bvadd (bvmul bv2468498[24] x16) 
                        (bvadd (bvmul bv8690505[24] x17) (bvmul bv16651381[24] x19))))))))))
	              bv12931039[24]))
         (and (not (= (bvadd (bvmul bv10138238[24] x1) 
                        (bvadd (bvmul bv12165036[24] x2) 
                        (bvadd (bvmul bv12870078[24] x4) 
                        (bvadd (bvmul bv12430461[24] x5) 
                        (bvadd (bvmul bv6329235[24] x6) 
                        (bvadd (bvmul bv506488[24] x7) 
                        (bvadd (bvmul bv3233868[24] x13) 
                        (bvadd (bvmul bv12912695[24] x14) 
                        (bvadd (bvmul bv1080218[24] x15) (bvmul bv6994034[24] x16))))))))))
	              bv2578138[24]))
         (and (not (= (bvadd (bvmul bv701679[24] x0) 
                        (bvadd (bvmul bv7783338[24] x1) 
                        (bvadd (bvmul bv13404043[24] x2) 
                        (bvadd (bvmul bv9304915[24] x4) 
                        (bvadd (bvmul bv8773799[24] x5) 
                        (bvadd (bvmul bv9128677[24] x6) 
                        (bvadd (bvmul bv6826186[24] x7) 
                        (bvadd (bvmul bv16495[24] x8) 
                        (bvadd (bvmul bv680193[24] x9) 
                        (bvadd (bvmul bv13018458[24] x10) 
                        (bvadd (bvmul bv12859167[24] x11) 
                        (bvadd (bvmul bv372131[24] x12) 
                        (bvadd (bvmul bv8407008[24] x16) 
                        (bvadd (bvmul bv11616481[24] x17) (bvmul bv5313745[24] x18)))))))))))))))
	              bv5198188[24]))
         (and (not (= (bvadd (bvmul bv11245490[24] x2) 
                        (bvadd (bvmul bv11856402[24] x5) 
                        (bvadd (bvmul bv151398[24] x6) 
                        (bvadd (bvmul bv15451136[24] x7) 
                        (bvadd (bvmul bv9952409[24] x8) 
                        (bvadd (bvmul bv6177232[24] x9) 
                        (bvadd (bvmul bv11479560[24] x10) 
                        (bvadd (bvmul bv16001426[24] x12) 
                        (bvadd (bvmul bv12021651[24] x14) 
                        (bvadd (bvmul bv9010268[24] x15) (bvmul bv9483522[24] x18)))))))))))
	              bv16264588[24]))
         (and (not (= (bvadd (bvmul bv5578036[24] x0) 
                        (bvadd (bvmul bv282574[24] x1) 
                        (bvadd (bvmul bv4058075[24] x2) 
                        (bvadd (bvmul bv10389815[24] x3) 
                        (bvadd (bvmul bv14145462[24] x6) 
                        (bvadd (bvmul bv7684129[24] x7) 
                        (bvadd (bvmul bv1610686[24] x12) 
                        (bvadd (bvmul bv13632337[24] x14) 
                        (bvadd (bvmul bv3716040[24] x16) (bvmul bv11615677[24] x19))))))))))
	              bv5572862[24]))
         (and (not (= (bvadd (bvmul bv416498[24] x0) 
                        (bvadd (bvmul bv11036985[24] x1) 
                        (bvadd (bvmul bv3586586[24] x2) 
                        (bvadd (bvmul bv14825224[24] x6) 
                        (bvadd (bvmul bv5732139[24] x8) 
                        (bvadd (bvmul bv15895392[24] x9) 
                        (bvadd (bvmul bv15788127[24] x11) 
                        (bvadd (bvmul bv2728351[24] x12) 
                        (bvadd (bvmul bv6584424[24] x13) 
                        (bvadd (bvmul bv6565447[24] x16) (bvmul bv6722812[24] x17)))))))))))
	              bv700008[24]))
         (and (not (= (bvadd (bvmul bv13969296[24] x2) 
                        (bvadd (bvmul bv12391253[24] x6) 
                        (bvadd (bvmul bv3574113[24] x11) 
                        (bvadd (bvmul bv6167249[24] x12) 
                        (bvadd (bvmul bv1124359[24] x15) (bvmul bv12042853[24] x16))))))
	              bv4588675[24]))
         (and (not (= (bvadd (bvmul bv3234995[24] x0) 
                        (bvadd (bvmul bv5055403[24] x2) 
                        (bvadd (bvmul bv2247484[24] x4) 
                        (bvadd (bvmul bv11653220[24] x5) 
                        (bvadd (bvmul bv7267259[24] x7) 
                        (bvadd (bvmul bv11723195[24] x9) 
                        (bvadd (bvmul bv3650243[24] x10) 
                        (bvadd (bvmul bv11011467[24] x11) 
                        (bvadd (bvmul bv1105121[24] x12) 
                        (bvadd (bvmul bv13978733[24] x16) 
                        (bvadd (bvmul bv7562391[24] x17) (bvmul bv15020537[24] x18))))))))))))
	              bv2267599[24]))
         (and (not (= (bvadd (bvmul bv14272473[24] x3) 
                        (bvadd (bvmul bv9159198[24] x4) 
                        (bvadd (bvmul bv14771541[24] x5) 
                        (bvadd (bvmul bv4196959[24] x7) 
                        (bvadd (bvmul bv11361719[24] x8) 
                        (bvadd (bvmul bv9881814[24] x10) 
                        (bvadd (bvmul bv8735624[24] x11) 
                        (bvadd (bvmul bv13406233[24] x12) 
                        (bvadd (bvmul bv13216416[24] x13) 
                        (bvadd (bvmul bv7873021[24] x14) (bvmul bv9173225[24] x19)))))))))))
	              bv9905539[24]))
         (and (not (= (bvadd (bvmul bv16496228[24] x0) 
                        (bvadd (bvmul bv9289501[24] x2) 
                        (bvadd (bvmul bv3106094[24] x3) 
                        (bvadd (bvmul bv2744618[24] x5) 
                        (bvadd (bvmul bv11966907[24] x6) 
                        (bvadd (bvmul bv11836882[24] x7) 
                        (bvadd (bvmul bv7210937[24] x8) 
                        (bvadd (bvmul bv14637074[24] x13) 
                        (bvadd (bvmul bv4610758[24] x14) 
                        (bvadd (bvmul bv9845306[24] x17) (bvmul bv3912395[24] x18)))))))))))
	              bv8901426[24]))
         (and (bvule      (bvadd (bvmul bv2859041[24] x1) 
                        (bvadd (bvmul bv7265576[24] x2) 
                        (bvadd (bvmul bv14908311[24] x6) 
                        (bvadd (bvmul bv13262110[24] x9) 
                        (bvadd (bvmul bv16395210[24] x10) 
                        (bvadd (bvmul bv14670473[24] x11) 
                        (bvadd (bvmul bv12530333[24] x13) (bvmul bv10329346[24] x18))))))))
	              bv16105618[24])
         (and (bvule      (bvadd (bvmul bv9750372[24] x0) 
                        (bvadd (bvmul bv15880722[24] x3) 
                        (bvadd (bvmul bv1797335[24] x4) 
                        (bvadd (bvmul bv662128[24] x7) 
                        (bvadd (bvmul bv10630108[24] x9) 
                        (bvadd (bvmul bv10248103[24] x11) 
                        (bvadd (bvmul bv12922348[24] x13) 
                        (bvadd (bvmul bv6664945[24] x14) 
                        (bvadd (bvmul bv14840560[24] x15) (bvmul bv701116[24] x18))))))))))
	              bv9584972[24])
         (and (bvule      (bvadd (bvmul bv13941354[24] x0) 
                        (bvadd (bvmul bv2681251[24] x1) 
                        (bvadd (bvmul bv11648293[24] x2) 
                        (bvadd (bvmul bv11570889[24] x3) 
                        (bvadd (bvmul bv1754100[24] x4) 
                        (bvadd (bvmul bv7261287[24] x6) 
                        (bvadd (bvmul bv9253369[24] x8) 
                        (bvadd (bvmul bv12222697[24] x11) 
                        (bvadd (bvmul bv7960301[24] x12) 
                        (bvadd (bvmul bv6023646[24] x14) 
                        (bvadd (bvmul bv16584566[24] x15) 
                        (bvadd (bvmul bv9960529[24] x16) (bvmul bv7187406[24] x18)))))))))))))
	              bv4855542[24])
         (and (bvule      (bvadd (bvmul bv10936028[24] x0) 
                        (bvadd (bvmul bv8492644[24] x1) 
                        (bvadd (bvmul bv10246744[24] x3) 
                        (bvadd (bvmul bv11970183[24] x4) 
                        (bvadd (bvmul bv3887314[24] x6) 
                        (bvadd (bvmul bv633640[24] x7) 
                        (bvadd (bvmul bv4362918[24] x10) 
                        (bvadd (bvmul bv14966765[24] x11) (bvmul bv7819683[24] x19)))))))))
	              bv5796394[24])
         (and (bvule      (bvadd (bvmul bv911126[24] x0) 
                        (bvadd (bvmul bv14160633[24] x1) 
                        (bvadd (bvmul bv5684909[24] x2) 
                        (bvadd (bvmul bv2873300[24] x3) 
                        (bvadd (bvmul bv6482332[24] x4) 
                        (bvadd (bvmul bv10369647[24] x6) 
                        (bvadd (bvmul bv16671786[24] x7) 
                        (bvadd (bvmul bv591853[24] x8) 
                        (bvadd (bvmul bv4007900[24] x9) 
                        (bvadd (bvmul bv10940459[24] x10) 
                        (bvadd (bvmul bv1612207[24] x12) 
                        (bvadd (bvmul bv2244484[24] x14) 
                        (bvadd (bvmul bv6612173[24] x15) 
                        (bvadd (bvmul bv15902033[24] x16) (bvmul bv15857241[24] x18)))))))))))))))
	              bv3601850[24])
         (and (bvule      (bvadd (bvmul bv6475150[24] x1) 
                        (bvadd (bvmul bv3964029[24] x4) 
                        (bvadd (bvmul bv6890355[24] x5) 
                        (bvadd (bvmul bv7482209[24] x7) 
                        (bvadd (bvmul bv16669401[24] x8) 
                        (bvadd (bvmul bv4728320[24] x10) 
                        (bvadd (bvmul bv12384962[24] x11) 
                        (bvadd (bvmul bv13392037[24] x12) (bvmul bv3528464[24] x13)))))))))
	              bv9148356[24])
         (and (bvule      (bvadd (bvmul bv11201343[24] x3) 
                        (bvadd (bvmul bv4199070[24] x6) 
                        (bvadd (bvmul bv2246758[24] x7) 
                        (bvadd (bvmul bv6126798[24] x11) 
                        (bvadd (bvmul bv4703862[24] x12) 
                        (bvadd (bvmul bv14903901[24] x14) (bvmul bv4308434[24] x19)))))))
	              bv13045703[24])
         (and (bvule      (bvadd (bvmul bv6041743[24] x0) 
                        (bvadd (bvmul bv10729741[24] x3) 
                        (bvadd (bvmul bv6170262[24] x14) 
                        (bvadd (bvmul bv5752683[24] x15) 
                        (bvadd (bvmul bv16719854[24] x16) (bvmul bv9000811[24] x17))))))
	              bv10655962[24])
         (and (bvule      (bvadd (bvmul bv4083606[24] x2) 
                        (bvadd (bvmul bv6045023[24] x5) 
                        (bvadd (bvmul bv3452977[24] x6) 
                        (bvadd (bvmul bv12308090[24] x10) 
                        (bvadd (bvmul bv14726904[24] x11) 
                        (bvadd (bvmul bv7064401[24] x15) 
                        (bvadd (bvmul bv1783465[24] x16) 
                        (bvadd (bvmul bv15995706[24] x18) (bvmul bv16054783[24] x19)))))))))
	              bv2965307[24])
         (and (bvule      (bvadd (bvmul bv4926338[24] x4) 
                        (bvadd (bvmul bv6448677[24] x7) 
                        (bvadd (bvmul bv12717778[24] x10) 
                        (bvadd (bvmul bv8935369[24] x11) 
                        (bvadd (bvmul bv12065278[24] x13) 
                        (bvadd (bvmul bv8096060[24] x15) 
                        (bvadd (bvmul bv11719931[24] x16) 
                        (bvadd (bvmul bv16537051[24] x17) 
                        (bvadd (bvmul bv9098017[24] x18) (bvmul bv8009686[24] x19))))))))))
	              bv12063324[24])
         (and (bvule      (bvadd (bvmul bv15102373[24] x0) 
                        (bvadd (bvmul bv16190881[24] x1) 
                        (bvadd (bvmul bv4375544[24] x2) 
                        (bvadd (bvmul bv15346905[24] x4) 
                        (bvadd (bvmul bv3976273[24] x5) 
                        (bvadd (bvmul bv8946599[24] x6) 
                        (bvadd (bvmul bv13370776[24] x7) 
                        (bvadd (bvmul bv13170031[24] x10) 
                        (bvadd (bvmul bv6282287[24] x11) 
                        (bvadd (bvmul bv1225003[24] x13) 
                        (bvadd (bvmul bv14003736[24] x14) (bvmul bv6689206[24] x15))))))))))))
	              bv16291966[24])
         (and (bvule      (bvadd (bvmul bv5800066[24] x2) 
                        (bvadd (bvmul bv5639968[24] x3) 
                        (bvadd (bvmul bv3874665[24] x6) 
                        (bvadd (bvmul bv9533078[24] x7) 
                        (bvadd (bvmul bv89899[24] x9) 
                        (bvadd (bvmul bv11604681[24] x10) 
                        (bvadd (bvmul bv15159632[24] x11) 
                        (bvadd (bvmul bv13201958[24] x12) 
                        (bvadd (bvmul bv13684747[24] x13) 
                        (bvadd (bvmul bv9564542[24] x14) 
                        (bvadd (bvmul bv5572053[24] x17) (bvmul bv6996575[24] x19))))))))))))
	              bv8881601[24])
         (and (bvule      (bvadd (bvmul bv1722792[24] x1) 
                        (bvadd (bvmul bv4732075[24] x8) 
                        (bvadd (bvmul bv13609419[24] x10) 
                        (bvadd (bvmul bv9567906[24] x11) 
                        (bvadd (bvmul bv13568874[24] x12) 
                        (bvadd (bvmul bv10476406[24] x14) 
                        (bvadd (bvmul bv4386585[24] x15) 
                        (bvadd (bvmul bv443659[24] x16) 
                        (bvadd (bvmul bv2867983[24] x17) (bvmul bv9864559[24] x19))))))))))
	              bv14459101[24])
         (and (=      (bvadd (bvmul bv5883986[24] x0) 
                        (bvadd (bvmul bv2510899[24] x1) 
                        (bvadd (bvmul bv10501181[24] x5) 
                        (bvadd (bvmul bv15269094[24] x6) 
                        (bvadd (bvmul bv7850350[24] x7) 
                        (bvadd (bvmul bv10624346[24] x8) (bvmul bv6721264[24] x17)))))))
	              bv12298763[24])
         (and (=      (bvadd (bvmul bv11143671[24] x0) 
                        (bvadd (bvmul bv7883506[24] x1) 
                        (bvadd (bvmul bv10394406[24] x3) 
                        (bvadd (bvmul bv13892175[24] x5) 
                        (bvadd (bvmul bv11132678[24] x7) 
                        (bvadd (bvmul bv5769092[24] x8) 
                        (bvadd (bvmul bv16393439[24] x10) 
                        (bvadd (bvmul bv3553265[24] x14) 
                        (bvadd (bvmul bv10077814[24] x16) (bvmul bv7837666[24] x19))))))))))
	              bv1223750[24])
         (and (=      (bvadd (bvmul bv2204123[24] x0) 
                        (bvadd (bvmul bv2815399[24] x1) 
                        (bvadd (bvmul bv8978179[24] x4) 
                        (bvadd (bvmul bv9261597[24] x6) 
                        (bvadd (bvmul bv4680229[24] x7) 
                        (bvadd (bvmul bv3551574[24] x13) (bvmul bv1417170[24] x17)))))))
	              bv7119372[24])
         (and (=      (bvadd (bvmul bv13512653[24] x0) 
                        (bvadd (bvmul bv15716776[24] x2) 
                        (bvadd (bvmul bv1394127[24] x4) 
                        (bvadd (bvmul bv10372307[24] x6) 
                        (bvadd (bvmul bv3098743[24] x7) 
                        (bvadd (bvmul bv5717870[24] x11) 
                        (bvadd (bvmul bv13029856[24] x12) 
                        (bvadd (bvmul bv14178076[24] x15) 
                        (bvadd (bvmul bv6909056[24] x16) (bvmul bv11474107[24] x17))))))))))
	              bv1816264[24])
         (and (=      (bvadd (bvmul bv10159388[24] x1) 
                        (bvadd (bvmul bv14644494[24] x2) 
                        (bvadd (bvmul bv12553180[24] x3) 
                        (bvadd (bvmul bv2735307[24] x4) 
                        (bvadd (bvmul bv12026741[24] x6) 
                        (bvadd (bvmul bv12490404[24] x7) 
                        (bvadd (bvmul bv16204874[24] x8) 
                        (bvadd (bvmul bv2859414[24] x11) 
                        (bvadd (bvmul bv4936164[24] x12) 
                        (bvadd (bvmul bv14993100[24] x14) 
                        (bvadd (bvmul bv5937516[24] x15) 
                        (bvadd (bvmul bv109968[24] x16) (bvmul bv6018559[24] x18)))))))))))))
	              bv4888430[24])
         (and (=      (bvadd (bvmul bv15802963[24] x7) 
                        (bvadd (bvmul bv9533102[24] x8) 
                        (bvadd (bvmul bv14409822[24] x9) 
                        (bvadd (bvmul bv4482883[24] x10) 
                        (bvadd (bvmul bv2222074[24] x11) 
                        (bvadd (bvmul bv16661447[24] x12) 
                        (bvadd (bvmul bv14877332[24] x14) 
                        (bvadd (bvmul bv15082769[24] x15) (bvmul bv6435349[24] x17)))))))))
	              bv13492862[24])
         (and (=      (bvadd (bvmul bv1640439[24] x1) 
                        (bvadd (bvmul bv10491948[24] x2) 
                        (bvadd (bvmul bv270995[24] x4) 
                        (bvadd (bvmul bv15253158[24] x6) 
                        (bvadd (bvmul bv10145849[24] x7) 
                        (bvadd (bvmul bv11765100[24] x8) 
                        (bvadd (bvmul bv7833834[24] x9) 
                        (bvadd (bvmul bv14353763[24] x10) 
                        (bvadd (bvmul bv5027356[24] x15) 
                        (bvadd (bvmul bv14345202[24] x16) (bvmul bv16127447[24] x17)))))))))))
	              bv6757816[24])
         (and (=      (bvadd (bvmul bv9818793[24] x0) 
                        (bvadd (bvmul bv4355270[24] x1) 
                        (bvadd (bvmul bv10653818[24] x2) 
                        (bvadd (bvmul bv15272921[24] x7) 
                        (bvadd (bvmul bv9127879[24] x8) 
                        (bvadd (bvmul bv7044595[24] x9) 
                        (bvadd (bvmul bv14762662[24] x11) 
                        (bvadd (bvmul bv645575[24] x12) (bvmul bv7156025[24] x19)))))))))
	              bv8536776[24])
         (and (=      (bvadd (bvmul bv10000884[24] x6) 
                        (bvadd (bvmul bv16324120[24] x9) 
                        (bvadd (bvmul bv8674785[24] x11) 
                        (bvadd (bvmul bv2581235[24] x12) 
                        (bvadd (bvmul bv9719456[24] x13) 
                        (bvadd (bvmul bv4370316[24] x16) (bvmul bv16037963[24] x17)))))))
	              bv16396385[24])
         (and (=      (bvadd (bvmul bv8155947[24] x1) 
                        (bvadd (bvmul bv12055747[24] x2) 
                        (bvadd (bvmul bv127388[24] x3) 
                        (bvadd (bvmul bv15953069[24] x5) 
                        (bvadd (bvmul bv12365002[24] x6) 
                        (bvadd (bvmul bv6022635[24] x9) 
                        (bvadd (bvmul bv5664472[24] x15) 
                        (bvadd (bvmul bv8348378[24] x16) 
                        (bvadd (bvmul bv6815839[24] x17) (bvmul bv10696213[24] x19))))))))))
	              bv7228297[24])
         (and (=      (bvadd (bvmul bv14985325[24] x2) 
                        (bvadd (bvmul bv887080[24] x5) 
                        (bvadd (bvmul bv11541116[24] x7) 
                        (bvadd (bvmul bv862744[24] x8) 
                        (bvadd (bvmul bv6885379[24] x10) 
                        (bvadd (bvmul bv11926483[24] x12) 
                        (bvadd (bvmul bv15099053[24] x13) 
                        (bvadd (bvmul bv15022632[24] x14) (bvmul bv9090119[24] x18)))))))))
	              bv7770474[24])
         (and (=      (bvadd (bvmul bv9795395[24] x0) 
                        (bvadd (bvmul bv14925446[24] x1) 
                        (bvadd (bvmul bv6489564[24] x3) 
                        (bvadd (bvmul bv8234557[24] x5) 
                        (bvadd (bvmul bv5567337[24] x7) 
                        (bvadd (bvmul bv14812025[24] x9) 
                        (bvadd (bvmul bv14614969[24] x10) 
                        (bvadd (bvmul bv6747750[24] x11) 
                        (bvadd (bvmul bv16657580[24] x13) 
                        (bvadd (bvmul bv1361358[24] x15) 
                        (bvadd (bvmul bv13520711[24] x16) 
                        (bvadd (bvmul bv3487136[24] x17) (bvmul bv13282531[24] x19)))))))))))))
	              bv462628[24])
         (and (=      (bvadd (bvmul bv14630475[24] x2) 
                        (bvadd (bvmul bv10492097[24] x3) 
                        (bvadd (bvmul bv2325666[24] x5) 
                        (bvadd (bvmul bv2634070[24] x6) 
                        (bvadd (bvmul bv9689964[24] x7) 
                        (bvadd (bvmul bv10518020[24] x8) 
                        (bvadd (bvmul bv4083452[24] x12) 
                        (bvadd (bvmul bv5444811[24] x14) 
                        (bvadd (bvmul bv15896288[24] x16) (bvmul bv9111752[24] x18))))))))))
	              bv14801873[24])
              (=      (bvadd (bvmul bv15105923[24] x2) 
                        (bvadd (bvmul bv7487637[24] x6) 
                        (bvadd (bvmul bv2449303[24] x7) 
                        (bvadd (bvmul bv16681856[24] x9) 
                        (bvadd (bvmul bv12986155[24] x10) 
                        (bvadd (bvmul bv9621481[24] x12) 
                        (bvadd (bvmul bv7768642[24] x16) 
                        (bvadd (bvmul bv12755066[24] x17) (bvmul bv13313347[24] x18)))))))))
	              bv1115768[24])
	 )))))))))))))))))))))))))))))))))))))))

)
